38	38	38	38	38	38	38	38	38	38	38	38	38	38	38	38	38	38	38	38	38	38	38	38	38	38	38	38	38	38	38	38	38	38	38	38	38	38	38	38	38	38	38	38	38	38	38	38	38	38	38	38	38	38	38	38	38	38	38	38	38	38	38	38	38	38	38	38	38	38	38	38	38	38	38	38	38	38	38	38	38	38	38	38	38	38	38	38	38	38	38	38	38	38	38	38	38	38	38	38	38	38	38	38	38	38	38	38	38	38	38	38	38	38	38	38	38	38	38	38	38	38	38	38	
38	38	38	38	38	38	38	38	38	38	38	38	38	38	38	38	38	38	38	38	38	38	38	38	38	38	38	38	38	38	38	38	38	38	38	38	38	38	38	38	38	38	38	38	38	38	38	38	38	38	38	38	38	38	38	38	38	38	38	38	38	38	38	38	38	38	38	38	38	38	38	38	38	38	38	38	38	38	38	38	38	38	38	38	38	38	38	38	38	38	38	38	38	38	38	38	38	38	38	38	38	38	38	38	38	38	38	38	38	38	38	38	38	38	38	38	38	38	38	38	38	38	38	38	
38	38	38	38	38	38	38	38	38	38	38	38	38	38	38	38	38	38	38	38	38	38	38	38	38	38	38	38	38	38	38	38	38	38	38	38	38	38	38	38	38	38	38	38	38	38	38	38	38	38	38	38	38	38	38	38	38	38	38	38	38	38	38	38	38	38	38	38	38	38	38	38	38	38	38	38	38	38	38	38	38	38	38	38	38	38	38	38	38	38	38	38	38	38	38	38	38	38	38	38	38	38	38	38	38	38	38	38	38	38	38	38	38	38	38	38	38	38	38	38	38	38	38	38	
38	38	38	38	38	38	38	38	38	38	38	38	38	38	38	38	38	38	38	38	38	38	38	38	38	38	38	38	38	38	38	38	38	38	38	38	38	38	38	38	38	38	38	38	38	38	38	38	38	38	38	38	38	38	38	38	38	38	38	38	38	38	38	38	38	38	38	38	38	38	38	38	38	38	38	38	38	38	38	38	38	38	38	38	38	38	38	38	38	38	38	38	38	38	38	38	38	38	38	38	38	38	38	38	38	38	38	38	38	38	38	38	38	38	38	38	38	38	38	38	38	38	38	38	
38	38	38	38	38	38	38	38	38	38	38	38	38	38	38	38	38	38	38	38	38	38	38	38	38	38	38	38	38	38	38	38	38	38	38	38	38	38	38	38	38	38	38	38	38	38	38	38	38	38	38	38	38	38	38	38	38	38	38	38	38	38	38	38	38	38	38	38	38	38	38	38	38	38	38	38	38	38	38	38	38	38	38	38	38	38	38	38	38	38	38	38	38	38	38	38	38	38	38	38	38	38	38	38	38	38	38	38	38	38	38	38	38	38	38	38	38	38	38	38	38	38	38	38	
38	38	38	38	38	38	38	38	38	38	38	38	38	38	38	38	38	38	38	38	38	38	38	38	38	38	38	38	38	38	38	38	38	38	38	38	38	38	38	38	38	38	38	38	38	38	38	38	38	38	38	38	38	38	38	38	38	38	38	38	38	38	38	38	38	38	38	38	38	38	38	38	38	38	38	38	38	38	38	38	38	38	38	38	38	38	38	38	38	38	38	38	38	38	38	38	38	38	38	38	38	38	38	38	38	38	38	38	38	38	38	38	38	38	38	38	38	38	38	38	38	38	38	38	
38	38	38	38	38	38	38	38	38	38	38	38	38	38	38	38	38	38	38	38	38	38	38	38	38	38	38	38	38	38	38	38	38	38	38	38	38	38	38	38	38	38	38	38	38	38	38	38	38	38	38	38	38	38	38	38	38	38	38	38	38	38	38	38	38	38	38	38	38	38	38	38	38	38	38	38	38	38	38	38	38	38	38	38	38	38	38	38	38	38	38	38	38	38	38	38	38	38	38	38	38	38	38	38	38	38	38	38	38	38	38	38	38	38	38	38	38	38	38	38	38	38	38	38	
38	38	38	38	38	38	38	38	38	38	38	38	38	38	38	38	38	38	38	38	38	38	38	38	38	38	38	38	38	38	38	38	38	38	38	38	38	38	38	38	38	38	38	38	38	38	38	38	38	38	38	38	38	38	38	38	38	38	38	38	38	38	38	38	38	38	38	38	38	38	38	38	38	38	38	38	38	38	38	38	38	38	38	38	38	38	38	38	38	38	38	38	38	38	38	38	38	38	38	38	38	38	38	38	38	38	38	38	38	38	38	38	38	38	38	38	38	38	38	38	38	38	38	38	
38	38	38	38	38	38	38	38	38	38	38	38	38	38	38	38	38	38	38	38	38	38	38	38	38	38	38	38	38	38	38	38	38	38	38	38	38	38	38	38	38	38	38	38	38	38	38	38	38	38	38	38	38	38	38	38	38	38	38	38	38	38	38	38	38	38	38	38	38	38	38	38	38	38	38	38	38	38	38	38	38	38	38	38	38	38	38	38	38	38	38	38	38	38	38	38	38	38	38	38	38	38	38	38	38	38	38	38	38	38	38	38	38	38	38	38	38	38	38	38	38	38	38	38	
38	38	38	38	38	38	38	38	38	38	38	38	38	38	38	38	38	38	38	38	38	38	38	38	38	38	38	38	38	38	38	38	38	38	38	38	38	38	38	38	38	38	38	38	38	38	38	38	38	38	38	38	38	38	38	38	38	38	38	38	38	38	38	38	38	38	38	38	38	38	38	38	38	38	38	38	38	38	38	38	38	38	38	38	38	38	38	38	38	38	38	38	38	38	38	38	38	38	38	38	38	38	38	38	38	38	38	38	38	38	38	38	38	38	38	38	38	38	38	38	38	38	38	38	
38	38	38	38	38	38	38	38	38	38	38	38	38	38	38	38	38	38	38	38	38	38	38	38	38	38	38	38	38	38	38	38	38	38	38	38	38	38	38	38	38	38	38	38	38	38	38	38	38	38	38	38	38	38	38	38	38	38	38	38	38	38	38	38	38	38	38	38	38	38	38	57	139	38	139	38	38	38	38	38	38	38	38	38	38	38	38	38	38	38	38	38	38	38	38	38	38	38	38	38	38	38	38	38	38	38	38	38	38	38	38	38	38	38	38	38	38	38	38	38	38	38	38	38	
38	38	38	38	38	38	38	38	38	38	38	38	38	38	38	38	38	38	38	38	38	38	38	38	17	38	38	38	38	38	38	38	38	38	38	38	38	38	38	38	38	38	38	38	38	38	38	38	38	38	38	38	38	38	38	38	38	38	38	38	38	38	38	38	38	38	38	38	38	129	38	57	57	119	57	38	38	129	38	38	38	38	38	38	38	38	38	38	38	38	38	38	24	38	38	38	38	38	38	38	38	38	38	38	38	38	38	38	38	38	38	38	38	38	38	38	38	38	38	38	38	38	38	38	
38	38	38	38	38	38	38	38	38	38	38	38	38	38	38	38	38	38	38	38	38	38	24	24	24	24	38	38	38	38	38	38	38	38	38	38	38	38	38	38	38	38	38	38	38	38	38	38	38	38	38	38	38	38	38	38	38	38	38	38	38	38	38	38	38	38	38	38	38	119	57	38	38	139	38	38	57	119	38	38	38	38	38	38	38	38	38	38	38	38	38	38	27	38	38	38	38	38	38	38	139	38	38	38	38	38	38	38	38	38	38	38	38	38	38	38	38	38	38	38	38	38	38	38	
38	38	38	38	38	38	38	38	38	38	38	38	38	38	38	38	38	38	38	38	38	38	24	24	24	24	38	38	38	38	63	63	63	56	63	63	63	38	38	38	38	38	38	38	38	38	38	38	38	38	38	38	5	5	5	5	38	38	38	38	38	38	38	38	38	38	38	38	38	38	119	129	38	139	38	139	129	38	38	38	38	38	38	38	38	38	38	38	38	38	38	38	27	38	38	38	38	38	56	50	139	129	38	38	38	38	38	38	38	38	38	38	38	38	38	38	38	38	38	38	38	38	38	38	
38	38	38	38	38	38	38	38	38	38	38	38	38	38	38	38	38	38	38	38	38	38	38	38	17	38	38	38	38	42	42	42	42	55	55	42	42	38	38	38	38	38	38	38	38	38	38	38	38	38	42	5	5	5	5	4	5	38	38	38	38	38	38	38	38	38	38	38	139	38	38	57	139	139	139	38	38	38	139	38	38	38	38	38	38	38	38	38	38	38	38	26	23	27	27	38	38	38	54	129	130	119	38	38	38	38	38	38	38	38	38	38	38	38	38	38	38	38	38	38	38	38	38	38	
38	38	38	38	38	38	38	38	38	38	38	38	38	38	38	123	139	38	38	38	38	38	38	38	27	38	38	38	38	38	38	55	42	42	42	42	42	38	38	38	38	38	38	38	38	38	38	38	38	134	38	5	5	4	3	4	5	38	38	38	38	38	38	38	38	38	38	38	38	139	139	139	139	38	139	139	139	130	38	38	38	38	38	38	38	38	38	38	38	57	26	23	23	23	23	27	38	38	38	38	130	38	38	38	38	38	38	38	38	38	38	38	38	38	38	42	38	38	42	38	38	38	38	38	
38	38	38	38	38	38	38	38	38	38	38	38	38	38	130	130	139	130	38	38	38	38	23	23	27	4	38	38	38	38	38	42	42	42	63	55	38	38	38	38	38	38	38	38	38	38	38	38	38	4	5	5	5	4	38	38	38	139	38	38	38	38	38	38	38	38	38	38	129	38	38	134	139	129	139	38	38	38	129	38	38	38	38	38	38	38	38	38	38	38	38	26	23	27	27	38	38	38	38	38	38	38	38	38	38	42	42	42	42	42	42	42	42	42	42	42	55	55	42	38	38	38	38	38	
38	38	38	38	38	38	38	38	38	38	38	38	38	38	38	123	139	38	38	38	38	27	24	24	23	27	27	38	38	38	38	38	55	42	63	38	38	38	38	38	38	38	38	38	38	38	38	42	4	4	4	4	4	5	38	38	38	38	38	38	57	131	131	45	38	38	38	38	139	38	38	57	119	139	139	38	38	38	119	38	38	38	38	38	38	38	38	38	38	38	23	23	23	23	23	27	38	38	38	38	38	38	38	38	38	38	52	55	55	38	42	42	42	42	55	42	42	42	38	38	38	38	38	38	
38	38	38	38	38	38	38	38	38	55	38	38	38	38	38	123	129	38	38	38	38	26	24	24	23	27	27	38	38	38	38	38	36	38	38	38	38	42	42	42	42	42	42	38	38	38	38	139	139	139	139	139	139	139	139	119	38	38	38	38	121	131	131	73	38	38	38	38	38	38	138	119	38	139	38	139	119	38	38	38	38	38	38	139	38	38	38	38	38	38	26	23	23	23	23	27	134	38	38	38	38	38	38	38	38	38	38	38	38	38	38	38	42	42	42	42	42	42	38	38	38	38	38	38	
38	38	38	38	38	38	38	42	42	55	38	38	38	38	38	38	38	38	38	38	38	38	23	23	23	27	38	38	38	38	38	38	42	38	38	38	38	4	5	5	5	5	42	38	38	38	38	136	136	136	136	136	136	136	136	136	38	38	38	38	121	131	131	73	38	38	38	38	38	119	38	38	38	139	38	38	38	130	38	38	38	38	38	139	38	38	38	38	26	26	23	23	23	23	23	23	27	38	38	38	38	38	38	38	38	38	38	38	38	38	38	38	38	38	55	42	38	38	38	38	38	38	38	38	
38	38	38	38	38	38	38	42	42	42	55	38	38	38	38	38	38	38	38	38	38	23	23	23	23	24	27	38	38	38	38	38	38	38	38	38	5	5	4	4	4	4	4	103	38	38	38	136	136	136	136	136	136	136	136	136	38	38	38	38	121	131	131	73	38	38	38	38	38	38	38	57	139	38	130	38	38	38	38	38	38	38	130	139	139	135	38	38	38	38	38	38	102	38	38	38	38	38	38	38	38	139	139	139	139	139	139	139	38	38	38	38	38	38	54	42	38	38	38	38	38	38	38	38	
38	38	38	38	38	38	42	42	42	42	42	55	54	38	38	38	38	38	38	38	23	23	23	23	23	23	27	27	27	42	38	38	38	38	38	38	5	4	109	139	139	139	139	136	38	38	38	38	38	38	38	38	38	38	38	38	38	38	131	131	131	131	131	131	131	131	131	38	38	38	38	57	134	38	38	38	38	38	38	38	38	38	38	139	38	38	38	38	38	38	38	38	102	38	38	38	38	38	38	38	38	136	136	136	136	136	136	136	38	38	38	38	38	38	38	42	38	38	38	38	38	38	38	38	
38	38	38	38	38	42	42	42	42	42	55	42	42	55	38	38	38	38	38	38	38	23	24	24	23	23	27	134	38	38	38	38	38	38	38	38	5	4	109	139	107	107	107	135	38	38	38	38	38	38	38	130	119	38	38	38	38	38	38	119	139	139	139	139	130	129	38	38	38	38	38	38	38	38	38	38	38	38	38	38	38	38	38	38	38	38	38	38	38	38	38	38	102	38	38	38	38	38	38	38	38	38	3	4	4	4	4	38	38	38	38	38	38	38	38	38	38	38	38	38	38	38	38	38	
38	38	38	38	38	38	63	42	55	42	42	42	63	38	38	38	38	38	38	38	134	23	22	24	23	23	27	38	38	38	38	38	38	38	38	38	5	4	109	139	91	91	91	135	38	38	38	38	38	38	130	139	130	139	38	38	38	38	38	129	130	139	139	126	139	129	38	38	38	38	38	38	38	38	57	38	38	38	42	38	38	38	38	38	38	38	38	38	38	38	38	38	102	38	38	38	38	38	38	38	38	38	4	5	5	5	5	38	38	38	38	38	38	38	38	38	38	38	38	38	38	38	38	38	
38	38	38	38	38	38	63	42	55	42	42	42	63	38	38	38	38	38	38	23	5	23	23	23	23	23	23	27	27	27	38	38	38	38	38	38	119	139	139	139	91	131	91	91	91	38	38	38	38	38	38	119	129	38	38	38	38	38	139	139	137	131	139	131	139	139	130	38	38	38	38	38	38	38	38	102	42	121	102	38	38	38	38	38	38	38	38	38	38	38	38	38	38	38	38	38	38	38	38	38	38	38	4	5	5	5	5	38	38	38	38	38	38	38	38	38	38	38	38	38	38	38	38	38	
38	38	38	38	38	38	38	38	42	42	42	38	38	38	38	38	38	23	23	23	23	23	23	23	23	23	4	132	23	27	27	38	38	38	38	24	24	24	20	139	91	91	91	108	38	38	38	38	38	38	38	119	129	38	38	38	38	38	139	139	139	129	5	5	4	3	130	38	38	38	38	38	38	38	102	102	38	121	102	102	38	38	38	38	38	38	45	45	45	45	45	45	45	45	45	45	38	38	38	38	38	38	4	5	5	5	5	5	38	38	38	38	38	38	38	139	38	38	38	38	38	38	38	38	
38	38	38	38	38	38	38	38	38	63	38	38	38	38	38	38	38	38	38	38	38	38	38	38	102	38	38	38	38	38	38	38	38	24	24	24	24	24	20	139	139	139	139	139	139	38	38	38	38	38	38	38	38	38	38	38	38	38	38	139	139	139	139	139	130	130	38	38	38	38	38	38	38	38	38	102	38	121	102	38	38	38	38	38	38	38	38	45	45	45	132	132	121	121	132	38	38	38	38	38	38	38	4	5	5	5	5	5	5	103	38	38	38	129	139	139	139	38	38	38	38	38	38	38	
38	38	38	38	38	38	38	38	38	38	38	38	38	38	4	38	38	38	38	38	38	38	38	38	102	38	38	38	38	38	38	38	24	24	24	24	24	4	2	2	4	4	139	139	139	38	38	102	102	102	38	38	38	38	73	38	38	38	38	132	45	45	45	45	132	58	38	38	38	73	73	38	38	38	103	104	104	104	104	104	103	38	38	38	38	38	38	45	45	45	132	132	121	121	132	38	38	38	38	38	38	38	38	3	4	5	5	5	5	103	38	38	38	38	38	139	38	38	38	38	38	38	38	38	
38	38	38	38	38	38	38	38	38	38	38	38	42	38	4	38	38	38	38	38	38	38	38	38	102	38	38	38	38	38	38	38	24	24	24	24	24	4	4	4	5	5	127	115	139	38	38	102	102	102	38	38	38	38	102	134	38	38	38	132	132	132	132	132	132	132	38	38	38	102	73	38	38	38	104	104	104	104	104	104	103	38	38	38	38	38	38	45	45	45	132	132	121	121	132	38	38	38	38	38	38	38	38	5	5	5	5	5	5	103	38	38	38	38	38	119	38	38	38	38	38	38	38	38	
38	38	38	38	38	38	38	38	38	38	38	38	38	4	4	3	134	42	45	38	38	38	38	38	102	38	38	129	139	38	38	38	24	24	24	24	24	4	4	4	5	5	4	9	129	38	38	102	102	38	38	38	57	102	102	102	102	38	38	45	45	45	45	45	132	121	38	38	102	102	102	73	38	38	38	131	103	102	131	104	38	38	38	38	38	38	38	45	45	45	132	132	121	121	132	38	38	38	38	38	38	38	38	38	4	4	4	4	134	38	38	38	38	38	38	38	38	38	38	38	38	38	38	38	
38	38	38	38	38	38	38	38	38	38	38	4	4	5	5	5	5	5	45	38	38	38	38	38	38	38	139	139	139	139	38	38	24	24	24	24	24	4	4	4	5	5	5	5	5	5	91	91	91	38	38	57	38	57	38	73	102	73	135	139	139	138	123	138	132	121	132	102	132	38	38	38	57	57	102	103	103	103	104	104	38	38	38	38	38	38	38	45	45	45	132	132	121	121	132	38	38	38	42	4	5	4	38	38	38	38	38	38	38	38	38	38	38	38	38	38	38	38	38	38	38	38	38	38	
38	38	38	38	38	38	38	38	38	38	4	5	5	5	5	5	5	4	5	38	38	38	38	38	38	38	38	129	139	38	38	38	24	24	24	24	24	4	4	4	5	5	5	5	5	5	91	91	91	38	38	57	63	38	38	57	38	135	138	139	139	126	131	138	139	119	120	123	38	57	38	38	57	38	103	103	103	103	104	104	104	134	38	38	38	38	38	45	45	45	132	132	121	121	132	38	38	38	5	139	119	114	4	38	38	38	38	38	38	38	38	38	38	38	38	38	38	38	38	38	38	38	38	38	
38	38	38	38	38	38	38	38	38	5	5	5	5	5	5	5	5	5	5	5	38	38	38	38	38	38	38	38	38	38	38	38	38	24	24	24	24	4	4	4	4	4	4	132	42	42	42	102	102	38	38	38	38	38	38	38	38	136	139	139	139	139	139	139	139	125	126	139	38	38	38	38	38	57	38	104	104	104	104	104	103	104	18	38	38	38	38	45	45	45	132	132	121	121	132	38	38	38	5	139	38	57	127	38	38	38	38	38	24	24	38	24	38	38	38	38	38	38	38	38	38	38	38	38	
38	38	38	38	38	38	38	38	38	5	5	5	5	5	5	5	5	5	5	5	134	38	38	38	38	38	38	38	38	38	38	38	38	24	17	24	24	4	4	4	4	4	4	103	38	38	38	102	102	38	38	38	38	38	38	38	38	136	139	139	139	139	139	139	139	139	139	139	38	38	38	38	38	38	38	104	104	104	104	104	103	104	109	38	38	38	38	45	45	45	132	132	121	121	132	38	38	38	5	50	38	38	139	38	38	38	38	38	24	24	57	17	38	38	38	38	38	38	38	38	38	38	38	38	
38	38	38	38	38	38	38	38	38	38	45	45	45	132	45	132	132	132	45	38	38	38	38	38	38	38	38	42	134	38	38	38	38	38	38	17	17	4	4	4	4	4	4	103	38	38	38	102	102	38	38	38	38	38	38	38	38	82	139	130	139	139	131	139	139	139	130	130	38	38	38	38	38	38	38	104	104	104	104	104	104	104	104	104	134	38	38	45	45	45	132	132	121	121	132	38	38	38	139	5	38	38	38	38	38	38	38	134	38	57	24	38	38	38	38	38	38	38	38	38	38	38	38	38	
38	38	38	38	38	38	38	38	38	38	132	132	132	132	132	132	132	132	132	38	38	38	38	38	38	38	38	17	38	24	24	38	38	38	38	38	38	38	9	5	5	5	5	9	38	38	38	102	102	38	38	38	38	38	38	38	38	38	136	139	139	139	139	139	139	139	130	38	38	38	38	38	38	38	38	104	104	104	104	103	104	103	103	104	104	134	38	45	45	45	132	132	121	121	132	38	38	38	5	129	38	38	38	38	38	38	38	4	4	4	17	4	4	38	38	38	38	38	38	38	38	38	38	38	
38	38	38	38	38	38	38	38	38	38	132	24	24	24	132	132	132	132	132	38	38	38	38	38	38	38	42	134	17	38	38	38	38	38	38	38	38	38	9	5	5	5	4	103	38	38	38	102	102	38	38	38	38	38	38	38	38	38	136	139	139	139	139	139	139	139	130	38	38	38	38	38	38	38	38	104	104	104	104	104	104	104	104	104	38	38	38	45	45	45	132	132	121	121	132	38	38	38	129	5	38	38	38	38	38	38	38	5	5	5	24	5	5	134	38	38	38	38	38	38	38	38	38	38	
38	38	38	38	38	38	38	38	38	38	132	17	24	24	132	24	21	21	70	38	38	38	38	38	4	4	5	5	24	4	5	4	4	38	38	38	38	38	9	5	5	4	4	103	38	38	38	102	102	38	38	38	38	38	38	38	38	38	38	136	136	139	139	139	139	129	38	38	38	38	38	38	38	38	38	104	38	134	104	38	103	38	134	104	38	38	38	45	45	45	132	132	121	121	132	38	38	38	5	128	38	38	38	38	38	38	38	17	17	17	17	17	17	38	38	38	38	38	38	38	38	38	38	38	
38	38	38	38	38	38	38	38	38	38	132	24	24	24	132	17	21	21	132	38	38	38	38	38	4	4	4	4	17	5	4	4	3	38	38	38	38	38	9	4	4	4	4	103	38	38	38	102	102	38	38	38	38	38	38	38	38	38	38	136	136	114	50	124	130	130	38	38	38	38	38	38	38	38	38	104	38	134	104	38	103	134	134	104	38	38	38	45	45	45	132	132	121	121	132	38	38	38	4	118	38	38	38	38	38	38	38	17	17	17	24	17	17	38	38	38	38	38	38	38	38	38	38	38	
38	38	38	38	38	38	38	38	38	38	132	132	132	132	132	17	21	21	132	38	38	38	38	38	24	24	24	24	24	24	24	24	24	38	38	38	38	38	18	103	103	103	103	103	103	38	38	102	102	38	38	38	38	38	38	38	38	38	42	5	5	5	38	5	5	4	42	38	38	38	38	38	38	38	38	104	38	134	104	38	103	134	134	104	38	38	38	45	45	45	132	132	121	121	132	38	38	38	129	5	38	38	38	38	38	38	38	5	5	5	24	5	5	134	38	38	38	38	38	38	38	38	38	38	
38	38	38	38	38	38	38	38	38	38	45	45	45	45	45	17	21	21	45	38	38	38	38	38	4	5	5	3	17	5	5	5	4	38	38	38	38	38	133	102	102	102	102	102	102	38	38	102	102	38	38	38	38	38	38	38	38	42	4	4	4	4	38	4	4	3	4	38	38	38	38	38	38	38	38	102	38	121	73	38	102	38	121	102	38	38	38	45	45	45	132	132	121	121	132	38	38	38	139	139	38	38	38	38	38	38	38	4	4	4	24	4	4	134	38	38	38	38	38	38	38	38	38	38	
38	38	38	38	38	38	38	38	38	38	38	38	38	38	38	38	38	38	38	38	38	38	38	38	38	38	38	38	38	38	38	38	38	38	38	38	38	38	38	38	38	38	38	38	38	42	38	38	38	38	38	38	38	38	38	38	38	38	38	38	38	38	42	38	38	38	38	38	38	38	38	38	38	38	38	38	38	38	38	38	38	38	38	42	38	38	38	38	38	38	38	38	38	38	38	38	38	38	38	38	38	38	38	38	38	38	38	38	38	38	38	38	38	38	38	38	38	38	38	38	38	38	38	38	
38	38	38	38	38	38	38	38	38	38	38	38	38	38	38	38	38	38	38	38	38	38	38	38	38	38	38	38	38	38	38	38	38	38	38	38	38	38	38	38	38	38	38	38	38	38	38	38	38	38	38	38	38	38	38	38	38	38	38	38	38	38	38	38	38	38	38	38	38	38	38	38	38	38	38	38	38	38	38	38	38	38	38	38	38	38	38	38	38	38	38	38	38	38	38	38	38	38	38	38	38	38	38	38	38	38	38	38	38	38	38	38	38	38	38	38	38	38	38	38	38	38	38	38	
38	38	38	38	38	38	38	38	38	38	38	38	38	38	38	38	38	38	38	38	38	38	38	38	38	38	38	38	38	38	38	38	38	38	38	38	38	38	38	38	38	38	38	38	38	38	38	38	38	38	38	38	38	38	38	38	38	38	38	38	38	38	38	38	38	38	38	38	38	38	38	38	38	38	38	38	38	38	38	38	38	38	38	38	38	38	38	38	38	38	38	38	38	38	38	38	38	38	38	38	38	38	38	38	38	38	38	38	38	38	38	38	38	38	38	38	38	38	38	38	38	38	38	38	
38	38	38	38	38	38	38	38	38	38	38	38	38	38	38	38	38	38	38	38	38	38	38	38	38	38	38	38	38	38	38	38	38	38	38	38	38	38	38	38	38	38	38	38	38	38	38	38	38	38	38	38	38	38	38	38	38	38	38	38	38	38	38	38	38	38	38	38	38	38	38	38	38	38	38	38	38	38	38	38	38	38	38	38	38	38	38	38	38	38	38	38	38	38	38	38	38	38	38	38	38	38	38	38	38	38	38	38	38	38	38	38	38	38	38	38	38	38	38	38	38	38	38	38	
38	38	38	38	38	38	38	38	38	38	38	38	38	38	38	38	38	38	38	38	38	38	38	38	38	38	38	38	38	38	38	38	38	38	38	38	38	38	38	38	38	38	38	38	38	38	38	38	38	38	38	38	38	38	38	38	38	38	38	38	38	38	38	38	38	38	38	38	38	38	38	38	38	38	38	38	38	38	38	38	38	38	38	38	38	38	38	38	38	38	38	38	38	38	38	38	38	38	38	38	38	38	38	38	38	38	38	38	38	38	38	38	38	38	38	38	38	38	38	38	38	38	38	38	
38	38	38	38	38	38	38	38	38	38	38	38	38	38	38	38	38	38	38	38	38	38	38	38	38	38	38	38	130	38	38	38	130	38	130	139	139	38	38	139	129	38	38	119	139	38	38	130	38	38	122	38	38	38	130	139	126	38	126	38	38	38	38	119	139	57	38	118	139	118	38	38	139	125	122	130	139	139	139	38	130	38	38	38	130	38	38	139	129	38	38	123	139	38	122	38	38	38	38	38	38	38	38	38	38	38	38	38	38	38	38	38	38	38	38	38	38	38	38	38	38	38	38	38	
38	38	38	38	38	38	38	38	38	38	38	38	38	38	38	38	38	38	38	38	38	38	38	38	38	38	38	38	130	139	38	139	139	38	139	38	38	38	130	38	38	123	122	57	38	139	38	38	126	38	123	38	38	38	119	38	38	38	119	38	38	38	119	38	38	130	38	38	139	38	38	130	38	38	38	38	119	38	38	38	139	130	38	139	119	38	119	38	38	137	57	122	38	38	122	38	38	38	38	38	38	38	38	38	38	38	38	38	38	38	38	38	38	38	38	38	38	38	38	38	38	38	38	38	
38	38	38	38	38	38	38	38	38	38	38	38	38	38	38	38	38	38	38	38	38	38	38	38	38	38	38	38	130	38	130	38	139	38	139	130	38	38	130	38	38	123	122	57	38	139	38	38	38	130	38	38	38	38	119	38	38	38	130	130	127	38	129	38	38	130	38	38	139	38	38	139	119	139	38	38	130	38	38	38	139	38	118	38	119	38	139	38	38	137	38	130	130	38	122	38	38	38	38	38	38	38	38	38	38	38	38	38	38	38	38	38	38	38	38	38	38	38	38	38	38	38	38	38	
38	38	38	38	38	38	38	38	38	38	38	38	38	38	38	38	38	38	38	38	38	38	38	38	38	38	38	38	130	38	38	38	139	38	139	38	38	38	130	139	119	38	122	139	130	38	38	38	38	139	38	38	38	38	119	38	38	38	119	38	38	38	129	139	139	38	38	38	139	38	38	38	38	119	38	38	130	38	38	38	139	38	38	38	119	38	130	130	139	137	38	38	119	38	122	57	38	38	38	38	38	38	38	38	38	38	38	38	38	38	38	38	38	38	38	38	38	38	38	38	38	38	38	38	
38	38	38	38	38	38	38	38	38	38	38	38	38	38	38	38	38	38	38	38	38	38	38	38	38	38	38	38	130	38	38	38	139	38	139	38	38	38	130	38	130	38	122	57	119	38	38	38	38	139	38	38	38	38	119	38	38	38	119	38	38	38	129	38	139	38	38	57	139	38	38	38	38	119	38	38	130	38	38	38	139	38	38	38	119	38	139	38	38	137	38	38	129	38	38	38	38	38	38	38	38	38	38	38	38	38	38	38	38	38	38	38	38	38	38	38	38	38	38	38	38	38	38	38	
38	38	38	38	38	38	38	38	38	38	38	38	38	38	38	38	38	38	38	38	38	38	38	38	38	38	38	38	130	38	38	38	139	38	139	139	139	38	130	38	57	123	122	57	38	130	38	38	38	139	38	38	38	38	119	139	130	38	119	38	38	38	129	38	38	139	38	126	139	139	38	139	139	119	38	38	130	38	38	38	139	38	38	38	119	38	139	38	38	137	38	139	139	38	122	38	38	38	38	38	38	38	38	38	38	38	38	38	38	38	38	38	38	38	38	38	38	38	38	38	38	38	38	38	
38	38	38	38	38	38	38	38	38	38	38	38	38	38	38	38	38	38	38	38	38	38	38	38	38	38	38	38	38	38	38	38	38	38	38	38	38	38	38	38	38	38	38	38	38	38	38	38	38	38	38	38	38	38	38	38	38	38	38	38	38	38	38	38	38	38	38	38	38	38	38	38	38	38	38	38	38	38	38	38	38	38	38	38	38	38	38	38	38	38	38	38	38	38	38	38	38	38	38	38	38	38	38	38	38	38	38	38	38	38	38	38	38	38	38	38	38	38	38	38	38	38	38	38	
38	38	38	38	38	38	38	38	38	38	38	38	38	38	38	38	38	38	38	38	38	38	38	38	38	38	38	38	38	38	38	38	38	38	38	38	38	38	38	38	38	38	38	38	38	38	38	38	38	38	38	38	38	38	38	38	38	38	38	38	38	38	38	38	38	38	38	38	38	38	38	38	38	38	38	38	38	38	38	38	38	38	38	38	38	38	38	38	38	38	38	38	38	38	38	38	38	38	38	38	38	38	38	38	38	38	38	38	38	38	38	38	38	38	38	38	38	38	38	38	38	38	38	38	
38	38	38	38	38	38	38	38	38	38	38	38	38	38	38	38	38	38	38	38	38	38	38	38	38	38	38	38	38	38	38	38	38	38	38	38	38	38	38	38	38	38	38	38	38	38	38	38	38	38	38	38	38	38	38	38	38	38	38	38	38	38	38	38	38	38	38	38	38	38	38	38	38	38	38	38	38	38	38	38	38	38	38	38	38	38	38	38	38	38	38	38	38	38	38	38	38	38	38	38	38	38	38	38	38	38	38	38	38	38	38	38	38	38	38	38	38	38	38	38	38	38	38	38	
38	38	38	38	38	38	38	38	38	38	38	38	38	38	38	38	38	38	38	38	38	38	38	38	38	38	38	38	38	38	38	38	38	38	38	38	38	38	38	38	38	38	38	38	38	38	38	38	38	38	38	38	38	38	38	38	38	38	38	38	38	38	38	38	38	38	38	38	38	38	38	38	38	38	38	38	38	38	38	38	38	38	38	38	38	38	38	38	38	38	38	38	38	38	38	38	38	38	38	38	38	38	38	38	38	38	38	38	38	38	38	38	38	38	38	38	38	38	38	38	38	38	38	38	
38	38	38	38	38	38	38	38	38	38	38	38	38	38	38	38	38	38	38	38	38	38	38	38	38	38	38	38	38	38	38	38	38	38	38	38	38	38	38	38	38	38	38	38	38	38	38	38	38	38	38	38	38	38	38	38	38	38	38	38	38	38	38	38	38	38	38	38	38	38	38	38	38	38	38	38	38	38	38	38	38	38	38	38	38	38	38	38	38	38	38	38	38	38	38	38	38	38	38	38	38	38	38	38	38	38	38	38	38	38	38	38	38	38	38	38	38	38	38	38	38	38	38	38	
38	38	38	38	38	38	38	38	38	38	38	38	38	38	38	38	38	38	38	38	38	38	38	38	38	38	38	38	38	38	38	38	38	38	38	38	38	38	38	38	38	38	38	38	38	38	38	38	38	38	38	38	38	38	38	38	38	38	38	38	38	38	38	38	38	38	38	38	38	38	38	38	38	38	38	38	38	38	38	38	38	38	38	38	38	38	38	38	38	38	38	38	38	38	38	38	38	38	38	38	38	38	38	38	38	38	38	38	38	38	38	38	38	38	38	38	38	38	38	38	38	38	38	38	
38	38	38	38	38	38	38	38	38	38	38	38	38	38	38	38	38	38	38	38	38	38	38	38	38	38	38	38	38	38	38	38	38	38	38	38	38	38	38	38	38	38	38	38	38	38	38	38	38	38	38	38	38	38	38	38	38	38	38	38	38	38	38	38	38	38	38	38	38	38	38	38	38	38	38	38	38	38	38	38	38	38	38	38	38	38	38	38	38	38	38	38	38	38	38	38	38	38	38	38	38	38	38	38	38	38	38	38	38	38	38	38	38	38	38	38	38	38	38	38	38	38	38	38	
38	38	38	38	38	38	38	38	38	38	38	38	38	38	38	38	38	38	38	38	38	38	38	38	38	38	38	38	38	38	38	38	38	38	38	38	38	38	38	38	38	38	38	38	38	38	38	38	38	38	38	38	38	38	38	38	38	38	38	38	38	38	38	38	38	38	38	38	38	38	38	38	38	38	38	38	38	38	38	38	38	38	38	38	38	38	38	38	38	38	38	38	38	38	38	38	38	38	38	38	38	38	38	38	38	38	38	38	38	38	38	38	38	38	38	38	38	38	38	38	38	38	38	38	
